; --------------------------------------------------------------------------
; File     : KGC302-1.smt2
; Domain   : ODRL Policy / KB Grounding Concept-valued
; Axioms   : spatial: isPartOf gn:Europe x eq gn:France -> Compatible
; Version  : 1.0
; Authors  : 
; Refs     : [Mus+26b] Mustafa, D., Collarana, D., Lange, C., Peng, Y., Haque, R., Quix, C., Decker, S. Denotational Semantics for ODRL: Knowledge-Based Constraint Conflict Detection. 2026. arXiv:2602.19883. https://arxiv.org/abs/2602.19883
; Source   : Mustafa, D. (2026)
; Names    : KGC302-1.smt2
; Status   : sat
; Verdict  : Compatible
; Comments : Verdict: Compatible  Category: Conflict  Difficulty: Easy
; --------------------------------------------------------------------------

(set-logic UF)
(declare-sort Concept 0)
(declare-fun gn_europe () Concept)
(declare-fun gn_france () Concept)
(declare-fun kge_leq (Concept Concept) Bool)
; Reflexivity.
(assert (kge_leq gn_france gn_france))
(assert (kge_leq gn_europe gn_europe))
; GeoNames: France parentFeature Europe -> kge_leq(gn_france, gn_europe).
(assert (kge_leq gn_france gn_europe))
; Compatible: a witness x exists in both denotations.
(declare-fun x () Concept)
(assert (= x gn_france))
(assert (kge_leq x gn_europe))
(check-sat)
(exit)
